10
0 1 81
0 2 50
0 3 18
0 4 75
0 5 39
0 6 107
0 7 77
0 8 87
0 9 43
1 0 81
1 2 76
1 3 21
1 4 37
1 5 26
1 6 34
1 7 58
1 8 66
1 9 15
2 0 50
2 1 76
2 3 24
2 4 14
2 5 58
2 6 100
2 7 68
2 8 33
2 9 30
3 0 18
3 1 21
3 2 24
3 4 19
3 5 58
3 6 68
3 7 62
3 8 84
3 9 81
4 0 75
4 1 37
4 2 14
4 3 19
4 5 31
4 6 60
4 7 65
4 8 29
4 9 91
5 0 39
5 1 26
5 2 58
5 3 58
5 4 31
5 6 64
5 7 21
5 8 42
5 9 46
6 0 107
6 1 34
6 2 100
6 3 68
6 4 60
6 5 64
6 7 15
6 8 55
6 9 16
7 0 77
7 1 58
7 2 68
7 3 62
7 4 65
7 5 21
7 6 15
7 8 17
7 9 34
8 0 87
8 1 66
8 2 33
8 3 84
8 4 29
8 5 42
8 6 55
8 7 17
8 9 68
9 0 43
9 1 15
9 2 30
9 3 81
9 4 91
9 5 46
9 6 16
9 7 34
9 8 68
